%SETS
JOBS = 1..50;
MACHINES = 1..20;
SPEED    = 3;

time = array3d(JOBS,MACHINES,1..SPEED,[8, 2, 1, 30, 7, 5, 15, 3, 2, 4, 1, 1, 20, 4, 3, 39, 9, 7, 9, 2, 1, 6, 1, 1, 12, 3, 2, 71, 17, 12, 96, 23, 17, 28, 7, 5, 60, 14, 10, 48, 11, 8, 12, 3, 2, 2, 1, 1, 27, 6, 4, 21, 5, 3, 11, 2, 2, 6, 1, 1, 13, 3, 2, 16, 4, 2, 8, 1, 1, 8, 2, 1, 15, 3, 2, 50, 12, 9, 22, 5, 4, 8, 2, 1, 8, 2, 1, 15, 3, 2, 5, 1, 1, 5, 1, 1, 18, 4, 3, 2, 1, 1, 17, 4, 3, 11, 2, 2, 31, 7, 5, 35, 8, 6, 30, 7, 5, 30, 7, 5, 12, 2, 2, 28, 6, 5, 10, 2, 1, 22, 5, 3, 10, 2, 1, 15, 3, 2, 1, 1, 1, 7, 1, 1, 92, 22, 16, 6, 1, 1, 30, 7, 5, 27, 6, 4, 33, 8, 5, 16, 4, 3, 23, 5, 4, 1, 1, 1, 1, 1, 1, 5, 1, 1, 4, 1, 1, 2, 1, 1, 3, 1, 1, 20, 5, 3, 5, 1, 1, 78, 19, 14, 29, 7, 5, 20, 4, 3, 31, 7, 5, 7, 1, 1, 67, 16, 12, 47, 11, 8, 33, 8, 6, 16, 4, 3, 47, 11, 8, 35, 8, 6, 27, 6, 5, 63, 15, 11, 25, 6, 4, 11, 2, 2, 20, 5, 3, 5, 1, 1, 5, 1, 1, 33, 8, 6, 39, 9, 7, 92, 22, 16, 49, 12, 8, 20, 4, 3, 2, 1, 1, 17, 4, 3, 68, 16, 12, 40, 9, 7, 17, 4, 3, 15, 3, 2, 6, 1, 1, 5, 1, 1, 1, 1, 1, 57, 14, 10, 26, 6, 4, 4, 1, 1, 13, 3, 2, 1, 1, 1, 6, 1, 1, 33, 8, 6, 27, 6, 4, 16, 4, 3, 8, 2, 1, 27, 6, 4, 81, 19, 14, 14, 3, 2, 1, 1, 1, 1, 1, 1, 2, 1, 1, 83, 20, 14, 20, 4, 3, 47, 11, 8, 4, 1, 1, 7, 1, 1, 30, 7, 5, 58, 14, 10, 10, 2, 1, 1, 1, 1, 51, 12, 9, 8, 2, 1, 34, 8, 6, 4, 1, 1, 30, 7, 5, 47, 11, 8, 33, 8, 6, 11, 2, 2, 33, 8, 6, 3, 1, 1, 9, 2, 1, 14, 3, 2, 54, 13, 9, 4, 1, 1, 54, 13, 9, 41, 10, 7, 92, 22, 16, 11, 2, 2, 5, 1, 1, 7, 1, 1, 45, 11, 8, 86, 21, 15, 31, 7, 5, 17, 4, 3, 8, 2, 1, 46, 11, 8, 53, 13, 9, 2, 1, 1, 6, 1, 1, 46, 11, 8, 48, 11, 8, 9, 2, 1, 8, 2, 1, 14, 3, 2, 20, 4, 3, 2, 1, 1, 46, 11, 8, 19, 4, 3, 38, 9, 6, 6, 1, 1, 86, 21, 15, 35, 8, 6, 10, 2, 1, 76, 18, 13, 31, 7, 5, 47, 11, 8, 1, 1, 1, 1, 1, 1, 35, 8, 6, 9, 2, 1, 18, 4, 3, 4, 1, 1, 98, 24, 17, 18, 4, 3, 45, 11, 8, 1, 1, 1, 16, 4, 3, 1, 1, 1, 55, 13, 10, 15, 3, 2, 1, 1, 1, 2, 1, 1, 20, 4, 3, 2, 1, 1, 5, 1, 1, 14, 3, 2, 17, 4, 3, 22, 5, 4, 25, 6, 4, 12, 2, 2, 24, 6, 4, 4, 1, 1, 8, 2, 1, 41, 10, 7, 4, 1, 1, 6, 1, 1, 7, 1, 1, 16, 4, 3, 1, 1, 1, 1, 1, 1, 16, 3, 2, 4, 1, 1, 29, 7, 5, 41, 10, 7, 22, 5, 4, 30, 7, 5, 12, 3, 2, 1, 1, 1, 14, 3, 2, 12, 2, 2, 23, 5, 4, 3, 1, 1, 6, 1, 1, 43, 10, 7, 7, 1, 1, 13, 3, 2, 71, 17, 12, 8, 2, 1, 4, 1, 1, 31, 7, 5, 21, 5, 3, 24, 5, 4, 1, 1, 1, 13, 3, 2, 1, 1, 1, 7, 1, 1, 31, 7, 5, 1, 1, 1, 9, 2, 1, 114, 28, 20, 91, 22, 16, 17, 4, 3, 34, 8, 6, 25, 6, 4, 16, 3, 2, 50, 12, 9, 4, 1, 1, 45, 11, 8, 1, 1, 1, 52, 12, 9, 29, 7, 5, 15, 3, 2, 28, 7, 5, 15, 3, 2, 39, 9, 7, 3, 1, 1, 18, 4, 3, 53, 13, 9, 67, 16, 12, 6, 1, 1, 7, 1, 1, 60, 14, 10, 10, 2, 1, 1, 1, 1, 32, 7, 5, 13, 3, 2, 34, 8, 6, 16, 4, 3, 17, 4, 3, 13, 3, 2, 8, 2, 1, 59, 14, 10, 28, 7, 5, 40, 9, 7, 58, 14, 10, 7, 1, 1, 65, 15, 11, 51, 12, 9, 18, 4, 3, 21, 5, 3, 3, 1, 1, 37, 9, 6, 4, 1, 1, 19, 4, 3, 3, 1, 1, 1, 1, 1, 24, 5, 4, 17, 4, 3, 29, 7, 5, 40, 9, 7, 104, 25, 18, 2, 1, 1, 25, 6, 4, 22, 5, 4, 27, 6, 4, 20, 4, 3, 21, 5, 3, 52, 12, 9, 15, 3, 2, 19, 4, 3, 30, 7, 5, 2, 1, 1, 14, 3, 2, 2, 1, 1, 3, 1, 1, 1, 1, 1, 6, 1, 1, 6, 1, 1, 18, 4, 3, 21, 5, 3, 44, 11, 8, 17, 4, 3, 57, 14, 10, 13, 3, 2, 35, 8, 6, 20, 5, 3, 25, 6, 4, 8, 1, 1, 71, 17, 12, 37, 9, 6, 4, 1, 1, 19, 4, 3, 141, 34, 25, 1, 1, 1, 9, 2, 1, 34, 8, 6, 1, 1, 1, 35, 8, 6, 22, 5, 3, 34, 8, 6, 20, 5, 3, 72, 17, 13, 11, 2, 1, 22, 5, 3, 1, 1, 1, 20, 5, 3, 14, 3, 2, 105, 25, 19, 75, 18, 13, 3, 1, 1, 1, 1, 1, 3, 1, 1, 5, 1, 1, 33, 8, 6, 20, 4, 3, 19, 4, 3, 16, 3, 2, 1, 1, 1, 12, 3, 2, 177, 43, 31, 44, 10, 7, 22, 5, 3, 5, 1, 1, 65, 16, 11, 14, 3, 2, 24, 6, 4, 5, 1, 1, 10, 2, 1, 10, 2, 1, 12, 3, 2, 1, 1, 1, 27, 6, 5, 4, 1, 1, 23, 5, 4, 25, 6, 4, 30, 7, 5, 8, 2, 1, 8, 2, 1, 36, 8, 6, 12, 3, 2, 4, 1, 1, 60, 14, 10, 1, 1, 1, 56, 13, 10, 8, 2, 1, 12, 3, 2, 99, 24, 17, 14, 3, 2, 32, 7, 5, 13, 3, 2, 63, 15, 11, 32, 8, 5, 16, 4, 3, 2, 1, 1, 11, 2, 2, 17, 4, 3, 8, 2, 1, 19, 4, 3, 6, 1, 1, 17, 4, 3, 19, 4, 3, 28, 7, 5, 35, 8, 6, 33, 8, 6, 14, 3, 2, 15, 3, 2, 53, 13, 9, 11, 2, 2, 34, 8, 6, 132, 32, 23, 66, 16, 12, 20, 5, 3, 9, 2, 1, 25, 6, 4, 29, 7, 5, 19, 4, 3, 10, 2, 1, 15, 3, 2, 2, 1, 1, 8, 2, 1, 4, 1, 1, 28, 6, 5, 82, 20, 14, 4, 1, 1, 1, 1, 1, 34, 8, 6, 11, 2, 2, 18, 4, 3, 1, 1, 1, 5, 1, 1, 30, 7, 5, 24, 5, 4, 49, 12, 8, 85, 20, 15, 11, 2, 2, 25, 6, 4, 15, 3, 2, 18, 4, 3, 12, 3, 2, 98, 24, 17, 25, 6, 4, 3, 1, 1, 30, 7, 5, 87, 21, 15, 58, 14, 10, 21, 5, 3, 1, 1, 1, 42, 10, 7, 69, 17, 12, 34, 8, 6, 14, 3, 2, 12, 3, 2, 35, 8, 6, 2, 1, 1, 39, 9, 7, 17, 4, 3, 1, 1, 1, 44, 10, 8, 12, 3, 2, 2, 1, 1, 4, 1, 1, 50, 12, 9, 4, 1, 1, 39, 9, 7, 42, 10, 7, 2, 1, 1, 14, 3, 2, 40, 9, 7, 17, 4, 3, 52, 12, 9, 12, 3, 2, 25, 6, 4, 6, 1, 1, 47, 11, 8, 47, 11, 8, 21, 5, 3, 10, 2, 1, 11, 2, 1, 23, 5, 4, 3, 1, 1, 18, 4, 3, 9, 2, 1, 10, 2, 1, 10, 2, 1, 46, 11, 8, 4, 1, 1, 6, 1, 1, 4, 1, 1, 1, 1, 1, 14, 3, 2, 48, 11, 8, 60, 14, 10, 17, 4, 3, 14, 3, 2, 52, 12, 9, 19, 4, 3, 20, 5, 3, 27, 6, 4, 2, 1, 1, 47, 11, 8, 2, 1, 1, 19, 4, 3, 67, 16, 12, 20, 5, 3, 10, 2, 1, 33, 8, 6, 59, 14, 10, 24, 6, 4, 1, 1, 1, 54, 13, 9, 1, 1, 1, 29, 7, 5, 59, 14, 10, 4, 1, 1, 19, 4, 3, 31, 7, 5, 4, 1, 1, 7, 1, 1, 1, 1, 1, 4, 1, 1, 3, 1, 1, 8, 2, 1, 35, 8, 6, 30, 7, 5, 37, 9, 6, 27, 6, 5, 40, 10, 7, 4, 1, 1, 20, 5, 3, 1, 1, 1, 17, 4, 3, 47, 11, 8, 16, 4, 2, 9, 2, 1, 8, 2, 1, 12, 3, 2, 63, 15, 11, 94, 23, 17, 35, 8, 6, 113, 27, 20, 37, 9, 6, 8, 2, 1, 14, 3, 2, 33, 8, 5, 31, 7, 5, 29, 7, 5, 17, 4, 3, 3, 1, 1, 83, 20, 14, 6, 1, 1, 100, 24, 18, 3, 1, 1, 101, 24, 18, 12, 2, 2, 43, 10, 7, 1, 1, 1, 15, 3, 2, 7, 1, 1, 30, 7, 5, 28, 6, 5, 16, 3, 2, 31, 7, 5, 99, 24, 17, 2, 1, 1, 21, 5, 3, 29, 7, 5, 25, 6, 4, 7, 1, 1, 53, 13, 9, 7, 1, 1, 48, 11, 8, 16, 4, 2, 3, 1, 1, 44, 11, 8, 2, 1, 1, 41, 10, 7, 23, 5, 4, 54, 13, 9, 42, 10, 7, 13, 3, 2, 3, 1, 1, 8, 1, 1, 1, 1, 1, 27, 6, 4, 2, 1, 1, 5, 1, 1, 7, 1, 1, 13, 3, 2, 30, 7, 5, 15, 3, 2, 18, 4, 3, 2, 1, 1, 10, 2, 1, 5, 1, 1, 34, 8, 6, 1, 1, 1, 24, 6, 4, 30, 7, 5, 18, 4, 3, 1, 1, 1, 7, 1, 1, 7, 1, 1, 8, 1, 1, 7, 1, 1, 93, 22, 16, 40, 9, 7, 57, 14, 10, 32, 7, 5, 11, 2, 1, 73, 18, 13, 17, 4, 3, 5, 1, 1, 33, 8, 6, 7, 1, 1, 44, 10, 8, 34, 8, 6, 8, 2, 1, 15, 3, 2, 32, 7, 5, 28, 6, 5, 19, 4, 3, 6, 1, 1, 10, 2, 1, 30, 7, 5, 15, 3, 2, 32, 8, 5, 29, 7, 5, 11, 2, 2, 2, 1, 1, 29, 7, 5, 11, 2, 2, 21, 5, 3, 3, 1, 1, 4, 1, 1, 14, 3, 2, 28, 7, 5, 3, 1, 1, 38, 9, 6, 49, 12, 8, 28, 7, 5, 35, 8, 6, 7, 1, 1, 2, 1, 1, 10, 2, 1, 3, 1, 1, 13, 3, 2, 37, 9, 6, 8, 2, 1, 50, 12, 9, 15, 3, 2, 4, 1, 1, 26, 6, 4, 14, 3, 2, 10, 2, 1, 18, 4, 3, 122, 29, 21, 36, 8, 6, 8, 2, 1, 67, 16, 12, 5, 1, 1, 13, 3, 2, 12, 2, 2, 109, 26, 19, 1, 1, 1, 27, 6, 4, 18, 4, 3, 4, 1, 1, 26, 6, 4, 42, 10, 7, 37, 9, 6, 2, 1, 1, 41, 10, 7, 10, 2, 1, 49, 12, 8, 21, 5, 3, 2, 1, 1, 35, 8, 6, 21, 5, 3, 15, 3, 2, 26, 6, 4, 15, 3, 2, 1, 1, 1, 63, 15, 11, 8, 2, 1, 8, 2, 1, 1, 1, 1, 32, 8, 5, 62, 15, 11, 16, 3, 2, 43, 10, 7, 10, 2, 1, 12, 3, 2, 8, 2, 1, 9, 2, 1, 21, 5, 3, 10, 2, 1, 1, 1, 1, 30, 7, 5, 9, 2, 1, 12, 3, 2, 5, 1, 1, 1, 1, 1, 27, 6, 4, 14, 3, 2, 69, 17, 12, 1, 1, 1, 45, 11, 8, 1, 1, 1, 4, 1, 1, 1, 1, 1, 18, 4, 3, 11, 2, 2, 9, 2, 1, 94, 23, 17, 22, 5, 4, 67, 16, 12, 56, 13, 10, 10, 2, 1, 27, 6, 4, 5, 1, 1, 11, 2, 2, 29, 7, 5, 21, 5, 3, 2, 1, 1, 2, 1, 1, 38, 9, 6, 31, 7, 5, 27, 6, 4, 6, 1, 1, 39, 9, 7, 22, 5, 4, 4, 1, 1, 4, 1, 1, 25, 6, 4, 99, 24, 17, 22, 5, 4, 9, 2, 1, 32, 7, 5, 5, 1, 1, 26, 6, 4, 13, 3, 2, 1, 1, 1, 18, 4, 3, 18, 4, 3, 62, 15, 11, 32, 7, 5, 9, 2, 1, 26, 6, 4, 7, 1, 1, 27, 6, 4, 23, 5, 4, 24, 6, 4, 4, 1, 1, 32, 7, 5, 19, 4, 3, 35, 8, 6, 1, 1, 1, 34, 8, 6, 77, 19, 13, 22, 5, 4, 3, 1, 1, 66, 16, 11, 20, 5, 3, 8, 2, 1, 25, 6, 4, 50, 12, 9, 2, 1, 1, 21, 5, 3, 25, 6, 4, 67, 16, 12, 1, 1, 1, 18, 4, 3, 34, 8, 6, 27, 6, 5, 51, 12, 9, 27, 6, 4, 25, 6, 4, 24, 5, 4, 4, 1, 1, 49, 12, 8, 18, 4, 3, 1, 1, 1, 44, 10, 7, 30, 7, 5, 27, 6, 4, 1, 1, 1, 31, 7, 5, 10, 2, 1, 43, 10, 7, 4, 1, 1, 10, 2, 1, 2, 1, 1, 1, 1, 1, 10, 2, 1, 31, 7, 5, 14, 3, 2, 9, 2, 1, 71, 17, 12, 33, 8, 6, 92, 22, 16, 9, 2, 1, 5, 1, 1, 89, 21, 16, 2, 1, 1, 39, 9, 7, 76, 18, 13, 32, 8, 5, 22, 5, 3, 11, 2, 2, 9, 2, 1, 1, 1, 1, 12, 3, 2, 18, 4, 3, 7, 1, 1, 90, 22, 16, 169, 41, 30, 8, 2, 1, 23, 5, 4, 55, 13, 9, 22, 5, 4, 11, 2, 2, 48, 11, 8, 19, 4, 3, 24, 6, 4, 36, 8, 6, 8, 2, 1, 29, 7, 5, 8, 1, 1, 27, 6, 4, 7, 1, 1, 41, 10, 7, 11, 2, 1, 83, 20, 15, 4, 1, 1, 32, 7, 5, 49, 12, 8, 53, 12, 9, 18, 4, 3, 20, 5, 3, 9, 2, 1, 50, 12, 9, 37, 9, 6, 18, 4, 3, 18, 4, 3, 65, 15, 11, 21, 5, 3, 2, 1, 1, 2, 1, 1, 37, 9, 6, 19, 4, 3, 21, 5, 3, 14, 3, 2, 1, 1, 1, 42, 10, 7, 12, 3, 2, 16, 3, 2, 15, 3, 2, 3, 1, 1, 85, 20, 15, 82, 20, 14, 1, 1, 1, 1, 1, 1, 12, 3, 2, 103, 25, 18, 17, 4, 3, 66, 16, 11, 10, 2, 1, 17, 4, 3, 45, 11, 8, 27, 6, 5, 9, 2, 1, 15, 3, 2, 25, 6, 4, 13, 3, 2, 5, 1, 1, 6, 1, 1, 34, 8, 6, 6, 1, 1, 5, 1, 1, 8, 2, 1, 116, 28, 21, 123, 30, 22, 16, 4, 3, 6, 1, 1, 15, 3, 2, 55, 13, 9, 22, 5, 4, 59, 14, 10, 54, 13, 9, 43, 10, 7, 55, 13, 10, 18, 4, 3, 4, 1, 1, 39, 9, 7, 126, 30, 22, 28, 6, 5, 7, 1, 1, 68, 16, 12, 66, 16, 11, 66, 16, 12, 28, 6, 5, 72, 17, 12, 6, 1, 1, 22, 5, 3, 129, 31, 23, 136, 33, 24, 41, 10, 7, 22, 5, 4, 25, 6, 4, 12, 3, 2, 6, 1, 1, 58, 14, 10, 22, 5, 4, 11, 2, 2, 10, 2, 1, 4, 1, 1, 5, 1, 1, 28, 6, 5, 8, 2, 1, 9, 2, 1, 48, 11, 8, 2, 1, 1, 77, 18, 13, 13, 3, 2, 45, 11, 8, 44, 11, 8, 29, 7, 5, 1, 1, 1, 27, 6, 4, 15, 3, 2, 9, 2, 1, 18, 4, 3, 28, 6, 5, 12, 3, 2, 13, 3, 2, 6, 1, 1, 4, 1, 1, 25, 6, 4, 95, 23, 17, 2, 1, 1, 27, 6, 4, 23, 5, 4, 35, 8, 6, 9, 2, 1, 7, 1, 1, 8, 2, 1, 47, 11, 8, 48, 11, 8, 43, 10, 7, 8, 2, 1, 12, 3, 2, 8, 2, 1, 30, 7, 5, 6, 1, 1, 35, 8, 6, 40, 9, 7, 19, 4, 3, 4, 1, 1, 7, 1, 1, 21, 5, 3, 34, 8, 6, 5, 1, 1, 27, 6, 4, 61, 15, 11, 34, 8, 6, 56, 13, 10, 82, 20, 14, 8, 2, 1, 6, 1, 1, 59, 14, 10, 12, 3, 2, 2, 1, 1, 25, 6, 4, 16, 4, 3, 5, 1, 1, 64, 15, 11, 16, 4, 3, 122, 29, 22, 8, 2, 1, 1, 1, 1, 61, 15, 11, 9, 2, 1, 66, 16, 11, 17, 4, 3, 30, 7, 5, 3, 1, 1, 7, 1, 1, 29, 7, 5, 78, 19, 14, 44, 10, 7, 60, 14, 10, 38, 9, 6, 92, 22, 16, 7, 1, 1, 3, 1, 1, 7, 1, 1, 22, 5, 4, 11, 2, 2, 1, 1, 1, 3, 1, 1, 8, 2, 1, 10, 2, 1, 9, 2, 1, 21, 5, 3, 27, 6, 4, 48, 11, 8, 12, 3, 2, 71, 17, 12, 12, 3, 2, 14, 3, 2, 13, 3, 2, 37, 9, 6, 34, 8, 6, 14, 3, 2, 10, 2, 1, 2, 1, 1, 7, 1, 1, 2, 1, 1, 10, 2, 1, 5, 1, 1]);
energy = array3d(JOBS,MACHINES,1..SPEED,[92, 98, 99, 74, 93, 95, 86, 97, 98, 96, 99, 99, 81, 96, 97, 67, 91, 93, 91, 98, 99, 94, 99, 99, 88, 97, 98, 49, 84, 88, 38, 79, 84, 75, 93, 95, 54, 86, 90, 61, 89, 92, 88, 97, 98, 98, 99, 99, 76, 94, 96, 81, 95, 97, 89, 98, 98, 94, 99, 99, 87, 97, 98, 85, 96, 98, 92, 99, 99, 92, 98, 99, 86, 97, 98, 60, 88, 91, 80, 95, 96, 92, 98, 99, 92, 98, 99, 86, 97, 98, 95, 99, 99, 95, 99, 99, 83, 96, 97, 98, 99, 99, 84, 96, 97, 89, 98, 98, 73, 93, 95, 70, 92, 94, 74, 93, 95, 74, 93, 95, 88, 98, 98, 75, 94, 95, 90, 98, 99, 80, 95, 97, 90, 98, 99, 86, 97, 98, 99, 99, 99, 93, 99, 99, 39, 80, 85, 94, 99, 99, 74, 93, 95, 76, 94, 96, 71, 92, 95, 85, 96, 97, 79, 95, 96, 99, 99, 99, 99, 99, 99, 95, 99, 99, 96, 99, 99, 98, 99, 99, 97, 99, 99, 81, 95, 97, 95, 99, 99, 45, 82, 86, 74, 93, 95, 81, 96, 97, 73, 93, 95, 93, 99, 99, 51, 85, 88, 62, 89, 92, 71, 92, 94, 85, 96, 97, 62, 89, 92, 70, 92, 94, 76, 94, 95, 53, 86, 89, 77, 94, 96, 89, 98, 98, 81, 95, 97, 95, 99, 99, 95, 99, 99, 71, 92, 94, 67, 91, 93, 39, 80, 85, 61, 88, 92, 81, 96, 97, 98, 99, 99, 84, 96, 97, 50, 85, 88, 67, 91, 93, 84, 96, 97, 86, 97, 98, 94, 99, 99, 95, 99, 99, 99, 99, 99, 56, 86, 90, 77, 94, 96, 96, 99, 99, 87, 97, 98, 99, 99, 99, 94, 99, 99, 71, 92, 94, 76, 94, 96, 85, 96, 97, 92, 98, 99, 76, 94, 96, 44, 82, 86, 86, 97, 98, 99, 99, 99, 99, 99, 99, 98, 99, 99, 43, 81, 86, 81, 96, 97, 62, 89, 92, 96, 99, 99, 93, 99, 99, 74, 93, 95, 55, 86, 90, 90, 98, 99, 99, 99, 99, 60, 88, 91, 92, 98, 99, 71, 92, 94, 96, 99, 99, 74, 93, 95, 62, 89, 92, 71, 92, 94, 89, 98, 98, 71, 92, 94, 97, 99, 99, 91, 98, 99, 86, 97, 98, 58, 87, 91, 96, 99, 99, 58, 87, 91, 66, 90, 93, 39, 80, 85, 89, 98, 98, 95, 99, 99, 93, 99, 99, 63, 89, 92, 42, 81, 86, 73, 93, 95, 84, 96, 97, 92, 98, 99, 63, 89, 92, 58, 87, 91, 98, 99, 99, 94, 99, 99, 63, 89, 92, 61, 89, 92, 91, 98, 99, 92, 98, 99, 86, 97, 98, 81, 96, 97, 98, 99, 99, 63, 89, 92, 82, 96, 97, 68, 91, 94, 94, 99, 99, 42, 81, 86, 70, 92, 94, 90, 98, 99, 46, 83, 87, 73, 93, 95, 62, 89, 92, 99, 99, 99, 99, 99, 99, 70, 92, 94, 91, 98, 99, 83, 96, 97, 96, 99, 99, 37, 78, 84, 83, 96, 97, 63, 89, 92, 99, 99, 99, 85, 96, 97, 99, 99, 99, 57, 87, 90, 86, 97, 98, 99, 99, 99, 98, 99, 99, 81, 96, 97, 98, 99, 99, 95, 99, 99, 86, 97, 98, 84, 96, 97, 80, 95, 96, 77, 94, 96, 88, 98, 98, 78, 94, 96, 96, 99, 99, 92, 98, 99, 66, 90, 93, 96, 99, 99, 94, 99, 99, 93, 99, 99, 85, 96, 97, 99, 99, 99, 99, 99, 99, 85, 97, 98, 96, 99, 99, 74, 93, 95, 66, 90, 93, 80, 95, 96, 74, 93, 95, 88, 97, 98, 99, 99, 99, 86, 97, 98, 88, 98, 98, 79, 95, 96, 97, 99, 99, 94, 99, 99, 65, 90, 93, 93, 99, 99, 87, 97, 98, 49, 84, 88, 92, 98, 99, 96, 99, 99, 73, 93, 95, 81, 95, 97, 78, 95, 96, 99, 99, 99, 87, 97, 98, 99, 99, 99, 93, 99, 99, 73, 93, 95, 99, 99, 99, 91, 98, 99, 31, 75, 81, 40, 80, 85, 84, 96, 97, 71, 92, 94, 77, 94, 96, 85, 97, 98, 60, 88, 91, 96, 99, 99, 63, 89, 92, 99, 99, 99, 59, 88, 91, 74, 93, 95, 86, 97, 98, 75, 93, 95, 86, 97, 98, 67, 91, 93, 97, 99, 99, 83, 96, 97, 58, 87, 91, 51, 85, 88, 94, 99, 99, 93, 99, 99, 54, 86, 90, 90, 98, 99, 99, 99, 99, 72, 93, 95, 87, 97, 98, 71, 92, 94, 85, 96, 97, 84, 96, 97, 87, 97, 98, 92, 98, 99, 55, 86, 90, 75, 93, 95, 67, 91, 93, 55, 86, 90, 93, 99, 99, 52, 86, 89, 60, 88, 91, 83, 96, 97, 81, 95, 97, 97, 99, 99, 69, 91, 94, 96, 99, 99, 82, 96, 97, 97, 99, 99, 99, 99, 99, 78, 95, 96, 84, 96, 97, 74, 93, 95, 67, 91, 93, 35, 77, 83, 98, 99, 99, 77, 94, 96, 80, 95, 96, 76, 94, 96, 81, 96, 97, 81, 95, 97, 59, 88, 91, 86, 97, 98, 82, 96, 97, 74, 93, 95, 98, 99, 99, 86, 97, 98, 98, 99, 99, 97, 99, 99, 99, 99, 99, 94, 99, 99, 94, 99, 99, 83, 96, 97, 81, 95, 97, 64, 89, 92, 84, 96, 97, 56, 86, 90, 87, 97, 98, 70, 92, 94, 81, 95, 97, 77, 94, 96, 92, 99, 99, 49, 84, 88, 69, 91, 94, 96, 99, 99, 82, 96, 97, 24, 71, 77, 99, 99, 99, 91, 98, 99, 71, 92, 94, 99, 99, 99, 70, 92, 94, 80, 95, 97, 71, 92, 94, 81, 95, 97, 48, 84, 87, 89, 98, 99, 80, 95, 97, 99, 99, 99, 81, 95, 97, 86, 97, 98, 34, 77, 82, 47, 83, 87, 97, 99, 99, 99, 99, 99, 97, 99, 99, 95, 99, 99, 71, 92, 94, 81, 96, 97, 82, 96, 97, 85, 97, 98, 99, 99, 99, 88, 97, 98, 17, 65, 73, 64, 90, 93, 80, 95, 97, 95, 99, 99, 52, 85, 89, 86, 97, 98, 78, 94, 96, 95, 99, 99, 90, 98, 99, 90, 98, 99, 88, 97, 98, 99, 99, 99, 76, 94, 95, 96, 99, 99, 79, 95, 96, 77, 94, 96, 74, 93, 95, 92, 98, 99, 92, 98, 99, 69, 92, 94, 88, 97, 98, 96, 99, 99, 54, 86, 90, 99, 99, 99, 57, 87, 90, 92, 98, 99, 88, 97, 98, 37, 78, 84, 86, 97, 98, 72, 93, 95, 87, 97, 98, 53, 86, 89, 72, 92, 95, 85, 96, 97, 98, 99, 99, 89, 98, 98, 84, 96, 97, 92, 98, 99, 82, 96, 97, 94, 99, 99, 84, 96, 97, 82, 96, 97, 75, 93, 95, 70, 92, 94, 71, 92, 94, 86, 97, 98, 86, 97, 98, 58, 87, 91, 89, 98, 98, 71, 92, 94, 26, 72, 79, 51, 85, 88, 81, 95, 97, 91, 98, 99, 77, 94, 96, 74, 93, 95, 82, 96, 97, 90, 98, 99, 86, 97, 98, 98, 99, 99, 92, 98, 99, 96, 99, 99, 75, 94, 95, 44, 81, 86, 96, 99, 99, 99, 99, 99, 71, 92, 94, 89, 98, 98, 83, 96, 97, 99, 99, 99, 95, 99, 99, 74, 93, 95, 78, 95, 96, 61, 88, 92, 42, 81, 86, 89, 98, 98, 77, 94, 96, 86, 97, 98, 83, 96, 97, 88, 97, 98, 37, 78, 84, 77, 94, 96, 97, 99, 99, 74, 93, 95, 41, 81, 86, 55, 86, 90, 81, 95, 97, 99, 99, 99, 65, 90, 93, 50, 84, 88, 71, 92, 94, 86, 97, 98, 88, 97, 98, 70, 92, 94, 98, 99, 99, 67, 91, 93, 84, 96, 97, 99, 99, 99, 64, 90, 92, 88, 97, 98, 98, 99, 99, 96, 99, 99, 60, 88, 91, 96, 99, 99, 67, 91, 93, 65, 90, 93, 98, 99, 99, 86, 97, 98, 67, 91, 93, 84, 96, 97, 59, 88, 91, 88, 97, 98, 77, 94, 96, 94, 99, 99, 62, 89, 92, 62, 89, 92, 81, 95, 97, 90, 98, 99, 89, 98, 99, 79, 95, 96, 97, 99, 99, 83, 96, 97, 91, 98, 99, 90, 98, 99, 90, 98, 99, 63, 89, 92, 96, 99, 99, 94, 99, 99, 96, 99, 99, 99, 99, 99, 86, 97, 98, 61, 89, 92, 54, 86, 90, 84, 96, 97, 86, 97, 98, 59, 88, 91, 82, 96, 97, 81, 95, 97, 76, 94, 96, 98, 99, 99, 62, 89, 92, 98, 99, 99, 82, 96, 97, 51, 85, 88, 81, 95, 97, 90, 98, 99, 71, 92, 94, 55, 86, 90, 78, 94, 96, 99, 99, 99, 58, 87, 91, 99, 99, 99, 74, 93, 95, 55, 86, 90, 96, 99, 99, 82, 96, 97, 73, 93, 95, 96, 99, 99, 93, 99, 99, 99, 99, 99, 96, 99, 99, 97, 99, 99, 92, 98, 99, 70, 92, 94, 74, 93, 95, 69, 91, 94, 76, 94, 95, 67, 90, 93, 96, 99, 99, 81, 95, 97, 99, 99, 99, 84, 96, 97, 62, 89, 92, 85, 96, 98, 91, 98, 99, 92, 98, 99, 88, 97, 98, 53, 86, 89, 39, 79, 84, 70, 92, 94, 32, 76, 81, 69, 91, 94, 92, 98, 99, 86, 97, 98, 71, 92, 95, 73, 93, 95, 74, 93, 95, 84, 96, 97, 97, 99, 99, 43, 81, 86, 94, 99, 99, 36, 78, 83, 97, 99, 99, 36, 78, 83, 88, 98, 98, 65, 90, 93, 99, 99, 99, 86, 97, 98, 93, 99, 99, 74, 93, 95, 75, 94, 95, 85, 97, 98, 73, 93, 95, 37, 78, 84, 98, 99, 99, 81, 95, 97, 74, 93, 95, 77, 94, 96, 93, 99, 99, 58, 87, 91, 93, 99, 99, 61, 89, 92, 85, 96, 98, 97, 99, 99, 64, 89, 92, 98, 99, 99, 66, 90, 93, 79, 95, 96, 58, 87, 91, 65, 90, 93, 87, 97, 98, 97, 99, 99, 92, 99, 99, 99, 99, 99, 76, 94, 96, 98, 99, 99, 95, 99, 99, 93, 99, 99, 87, 97, 98, 74, 93, 95, 86, 97, 98, 83, 96, 97, 98, 99, 99, 90, 98, 99, 95, 99, 99, 71, 92, 94, 99, 99, 99, 78, 94, 96, 74, 93, 95, 83, 96, 97, 99, 99, 99, 93, 99, 99, 93, 99, 99, 92, 99, 99, 93, 99, 99, 39, 80, 85, 67, 91, 93, 56, 86, 90, 72, 93, 95, 89, 98, 99, 48, 83, 87, 84, 96, 97, 95, 99, 99, 71, 92, 94, 93, 99, 99, 64, 90, 92, 71, 92, 94, 92, 98, 99, 86, 97, 98, 72, 93, 95, 75, 94, 95, 82, 96, 97, 94, 99, 99, 90, 98, 99, 74, 93, 95, 86, 97, 98, 72, 92, 95, 74, 93, 95, 89, 98, 98, 98, 99, 99, 74, 93, 95, 89, 98, 98, 81, 95, 97, 97, 99, 99, 96, 99, 99, 86, 97, 98, 75, 93, 95, 97, 99, 99, 68, 91, 94, 61, 88, 92, 75, 93, 95, 70, 92, 94, 93, 99, 99, 98, 99, 99, 90, 98, 99, 97, 99, 99, 87, 97, 98, 69, 91, 94, 92, 98, 99, 60, 88, 91, 86, 97, 98, 96, 99, 99, 77, 94, 96, 86, 97, 98, 90, 98, 99, 83, 96, 97, 29, 74, 81, 69, 92, 94, 92, 98, 99, 51, 85, 88, 95, 99, 99, 87, 97, 98, 88, 98, 98, 33, 77, 82, 99, 99, 99, 76, 94, 96, 83, 96, 97, 96, 99, 99, 77, 94, 96, 65, 90, 93, 69, 91, 94, 98, 99, 99, 66, 90, 93, 90, 98, 99, 61, 88, 92, 81, 95, 97, 98, 99, 99, 70, 92, 94, 81, 95, 97, 86, 97, 98, 77, 94, 96, 86, 97, 98, 99, 99, 99, 53, 86, 89, 92, 98, 99, 92, 98, 99, 99, 99, 99, 72, 92, 95, 53, 86, 89, 85, 97, 98, 65, 90, 93, 90, 98, 99, 88, 97, 98, 92, 98, 99, 91, 98, 99, 81, 95, 97, 90, 98, 99, 99, 99, 99, 74, 93, 95, 91, 98, 99, 88, 97, 98, 95, 99, 99, 99, 99, 99, 76, 94, 96, 86, 97, 98, 50, 84, 88, 99, 99, 99, 63, 89, 92, 99, 99, 99, 96, 99, 99, 99, 99, 99, 83, 96, 97, 89, 98, 98, 91, 98, 99, 39, 79, 84, 80, 95, 96, 51, 85, 88, 57, 87, 90, 90, 98, 99, 76, 94, 96, 95, 99, 99, 89, 98, 98, 74, 93, 95, 81, 95, 97, 98, 99, 99, 98, 99, 99, 68, 91, 94, 73, 93, 95, 76, 94, 96, 94, 99, 99, 67, 91, 93, 80, 95, 96, 96, 99, 99, 96, 99, 99, 77, 94, 96, 37, 78, 84, 80, 95, 96, 91, 98, 99, 72, 93, 95, 95, 99, 99, 77, 94, 96, 87, 97, 98, 99, 99, 99, 83, 96, 97, 83, 96, 97, 53, 86, 89, 72, 93, 95, 91, 98, 99, 77, 94, 96, 93, 99, 99, 76, 94, 96, 79, 95, 96, 78, 94, 96, 96, 99, 99, 72, 93, 95, 82, 96, 97, 70, 92, 94, 99, 99, 99, 71, 92, 94, 46, 82, 87, 80, 95, 96, 97, 99, 99, 51, 85, 89, 81, 95, 97, 92, 98, 99, 77, 94, 96, 60, 88, 91, 98, 99, 99, 81, 95, 97, 77, 94, 96, 51, 85, 88, 99, 99, 99, 83, 96, 97, 71, 92, 94, 76, 94, 95, 60, 88, 91, 76, 94, 96, 77, 94, 96, 78, 95, 96, 96, 99, 99, 61, 88, 92, 83, 96, 97, 99, 99, 99, 64, 90, 93, 74, 93, 95, 76, 94, 96, 99, 99, 99, 73, 93, 95, 90, 98, 99, 65, 90, 93, 96, 99, 99, 90, 98, 99, 98, 99, 99, 99, 99, 99, 90, 98, 99, 73, 93, 95, 86, 97, 98, 91, 98, 99, 49, 84, 88, 71, 92, 94, 39, 80, 85, 91, 98, 99, 95, 99, 99, 41, 81, 85, 98, 99, 99, 67, 91, 93, 46, 83, 87, 72, 92, 95, 80, 95, 97, 89, 98, 98, 91, 98, 99, 99, 99, 99, 88, 97, 98, 83, 96, 97, 93, 99, 99, 40, 80, 85, 18, 66, 74, 92, 98, 99, 79, 95, 96, 57, 87, 91, 80, 95, 96, 89, 98, 98, 61, 89, 92, 82, 96, 97, 78, 94, 96, 69, 92, 94, 92, 98, 99, 74, 93, 95, 92, 99, 99, 76, 94, 96, 93, 99, 99, 66, 90, 93, 89, 98, 99, 43, 81, 86, 96, 99, 99, 72, 93, 95, 61, 88, 92, 58, 88, 91, 83, 96, 97, 81, 95, 97, 91, 98, 99, 60, 88, 91, 69, 91, 94, 83, 96, 97, 83, 96, 97, 52, 86, 89, 81, 95, 97, 98, 99, 99, 98, 99, 99, 69, 91, 94, 82, 96, 97, 81, 95, 97, 86, 97, 98, 99, 99, 99, 65, 90, 93, 88, 97, 98, 85, 97, 98, 86, 97, 98, 97, 99, 99, 42, 81, 86, 44, 81, 86, 99, 99, 99, 99, 99, 99, 88, 97, 98, 35, 77, 83, 84, 96, 97, 51, 85, 89, 90, 98, 99, 84, 96, 97, 63, 89, 92, 76, 94, 95, 91, 98, 99, 86, 97, 98, 77, 94, 96, 87, 97, 98, 95, 99, 99, 94, 99, 99, 71, 92, 94, 94, 99, 99, 95, 99, 99, 92, 98, 99, 31, 75, 81, 29, 74, 80, 85, 96, 97, 94, 99, 99, 86, 97, 98, 57, 87, 91, 80, 95, 96, 55, 86, 90, 58, 87, 91, 65, 90, 93, 57, 87, 90, 83, 96, 97, 96, 99, 99, 67, 91, 93, 28, 74, 80, 75, 94, 95, 93, 99, 99, 50, 85, 88, 51, 85, 89, 51, 85, 88, 75, 94, 95, 48, 84, 88, 94, 99, 99, 80, 95, 97, 27, 73, 79, 25, 71, 78, 66, 90, 93, 80, 95, 96, 77, 94, 96, 88, 97, 98, 94, 99, 99, 55, 86, 90, 80, 95, 96, 89, 98, 98, 90, 98, 99, 96, 99, 99, 95, 99, 99, 75, 94, 95, 92, 98, 99, 91, 98, 99, 61, 89, 92, 98, 99, 99, 46, 83, 87, 87, 97, 98, 63, 89, 92, 64, 89, 92, 74, 93, 95, 99, 99, 99, 76, 94, 96, 86, 97, 98, 91, 98, 99, 83, 96, 97, 75, 94, 95, 88, 97, 98, 87, 97, 98, 94, 99, 99, 96, 99, 99, 77, 94, 96, 38, 79, 84, 98, 99, 99, 76, 94, 96, 79, 95, 96, 70, 92, 94, 91, 98, 99, 93, 99, 99, 92, 98, 99, 62, 89, 92, 61, 89, 92, 65, 90, 93, 92, 98, 99, 88, 97, 98, 92, 98, 99, 74, 93, 95, 94, 99, 99, 70, 92, 94, 67, 91, 93, 82, 96, 97, 96, 99, 99, 93, 99, 99, 81, 95, 97, 71, 92, 94, 95, 99, 99, 76, 94, 96, 54, 86, 89, 71, 92, 94, 57, 87, 90, 44, 81, 86, 92, 98, 99, 94, 99, 99, 55, 86, 90, 88, 97, 98, 98, 99, 99, 77, 94, 96, 85, 96, 97, 95, 99, 99, 52, 86, 89, 85, 96, 97, 29, 74, 80, 92, 98, 99, 99, 99, 99, 54, 86, 89, 91, 98, 99, 51, 85, 89, 84, 96, 97, 74, 93, 95, 97, 99, 99, 93, 99, 99, 74, 93, 95, 45, 82, 86, 64, 90, 93, 54, 86, 90, 68, 91, 94, 39, 80, 85, 93, 99, 99, 97, 99, 99, 93, 99, 99, 80, 95, 96, 89, 98, 98, 99, 99, 99, 97, 99, 99, 92, 98, 99, 90, 98, 99, 91, 98, 99, 81, 95, 97, 76, 94, 96, 61, 89, 92, 88, 97, 98, 49, 84, 88, 88, 97, 98, 86, 97, 98, 87, 97, 98, 69, 91, 94, 71, 92, 94, 86, 97, 98, 90, 98, 99, 98, 99, 99, 93, 99, 99, 98, 99, 99, 90, 98, 99, 95, 99, 99]);
precedence = array2d(JOBS,MACHINES,[16, 1, 18, 9, 15, 4, 12, 5, 17, 3, 0, 13, 8, 10, 2, 19, 6, 7, 11, 14, 13, 9, 17, 4, 11, 1, 18, 14, 12, 7, 8, 6, 19, 16, 10, 3, 2, 0, 15, 5, 17, 3, 19, 14, 12, 1, 10, 4, 2, 15, 13, 8, 6, 0, 11, 5, 18, 7, 9, 16, 0, 2, 1, 18, 6, 3, 7, 15, 12, 13, 11, 4, 17, 9, 8, 19, 16, 5, 14, 10, 11, 16, 17, 5, 4, 10, 0, 13, 2, 9, 18, 1, 19, 14, 6, 3, 8, 15, 12, 7, 7, 18, 3, 4, 17, 14, 11, 6, 13, 12, 16, 8, 10, 0, 15, 5, 2, 1, 9, 19, 12, 9, 4, 11, 2, 15, 5, 13, 16, 10, 17, 8, 14, 1, 18, 19, 0, 6, 7, 3, 1, 8, 7, 17, 0, 6, 16, 4, 12, 10, 5, 14, 19, 11, 2, 18, 13, 9, 3, 15, 1, 14, 10, 3, 9, 18, 4, 8, 13, 17, 6, 0, 19, 15, 7, 11, 16, 5, 12, 2, 15, 10, 14, 11, 18, 6, 17, 4, 19, 8, 2, 5, 7, 9, 1, 3, 16, 0, 13, 12, 9, 1, 3, 15, 8, 4, 2, 14, 19, 10, 11, 7, 17, 6, 12, 0, 16, 13, 18, 5, 6, 7, 19, 2, 1, 5, 14, 9, 15, 12, 11, 16, 10, 13, 0, 8, 18, 3, 4, 17, 13, 6, 10, 9, 11, 12, 3, 8, 0, 4, 14, 5, 2, 7, 18, 17, 16, 15, 19, 1, 16, 10, 9, 14, 12, 5, 3, 11, 13, 15, 8, 19, 0, 2, 4, 6, 7, 18, 1, 17, 19, 12, 5, 17, 7, 13, 11, 2, 1, 9, 0, 18, 10, 15, 16, 14, 6, 8, 3, 4, 15, 12, 18, 3, 5, 4, 2, 11, 1, 19, 13, 16, 14, 0, 9, 8, 7, 10, 17, 6, 11, 17, 9, 5, 0, 6, 8, 2, 13, 7, 4, 1, 19, 10, 18, 15, 12, 16, 3, 14, 5, 17, 0, 16, 6, 19, 2, 18, 11, 3, 14, 7, 15, 9, 12, 10, 13, 1, 4, 8, 13, 6, 2, 4, 1, 8, 12, 16, 5, 14, 10, 9, 17, 15, 18, 3, 19, 0, 7, 11, 8, 4, 16, 3, 14, 0, 11, 18, 2, 17, 10, 19, 1, 7, 6, 5, 13, 15, 9, 12, 10, 9, 18, 8, 1, 16, 19, 12, 17, 11, 5, 4, 15, 6, 2, 14, 0, 13, 3, 7, 11, 9, 0, 17, 1, 10, 5, 6, 13, 12, 7, 18, 8, 2, 3, 16, 4, 14, 19, 15, 19, 11, 12, 16, 13, 0, 7, 10, 9, 14, 4, 15, 6, 2, 8, 3, 18, 17, 5, 1, 5, 9, 6, 14, 4, 2, 11, 7, 17, 1, 12, 3, 10, 18, 8, 15, 19, 0, 13, 16, 15, 7, 13, 10, 11, 5, 1, 3, 17, 16, 6, 2, 8, 18, 12, 19, 0, 9, 4, 14, 10, 3, 19, 1, 17, 6, 2, 8, 7, 0, 16, 4, 5, 11, 18, 12, 14, 13, 9, 15, 15, 2, 5, 9, 3, 6, 7, 4, 12, 13, 19, 1, 10, 8, 18, 11, 14, 16, 0, 17, 13, 11, 15, 2, 14, 1, 10, 19, 6, 9, 12, 16, 8, 4, 5, 18, 3, 0, 7, 17, 16, 14, 11, 6, 9, 19, 5, 1, 17, 2, 3, 18, 10, 15, 13, 7, 0, 8, 12, 4, 17, 16, 8, 10, 4, 3, 11, 6, 18, 19, 1, 0, 14, 7, 9, 5, 13, 15, 2, 12, 14, 0, 13, 1, 5, 19, 8, 6, 10, 3, 9, 2, 15, 12, 18, 11, 16, 7, 17, 4, 12, 6, 4, 19, 16, 15, 9, 0, 11, 13, 1, 2, 18, 14, 17, 5, 10, 7, 8, 3, 17, 1, 19, 7, 0, 18, 3, 4, 16, 15, 9, 2, 11, 12, 13, 5, 14, 10, 6, 8, 16, 12, 14, 13, 9, 4, 2, 10, 11, 6, 1, 8, 15, 18, 17, 5, 19, 7, 0, 3, 2, 4, 11, 13, 7, 16, 19, 14, 15, 9, 5, 17, 8, 18, 12, 6, 1, 3, 0, 10, 12, 11, 0, 6, 4, 1, 18, 7, 3, 5, 17, 15, 10, 8, 13, 19, 16, 2, 14, 9, 9, 12, 8, 15, 2, 14, 4, 6, 17, 3, 7, 11, 1, 10, 0, 19, 16, 18, 5, 13, 4, 1, 15, 16, 7, 8, 9, 11, 13, 17, 19, 6, 12, 2, 5, 3, 10, 14, 0, 18, 11, 7, 15, 9, 1, 14, 8, 17, 19, 12, 6, 2, 16, 3, 5, 18, 10, 13, 4, 0, 19, 7, 10, 13, 8, 12, 5, 18, 11, 15, 0, 3, 2, 1, 16, 17, 4, 14, 6, 9, 2, 7, 14, 1, 11, 3, 9, 16, 0, 19, 12, 8, 15, 17, 4, 18, 5, 6, 10, 13, 15, 14, 16, 7, 19, 10, 13, 1, 12, 0, 5, 9, 8, 2, 11, 4, 6, 3, 18, 17, 4, 8, 13, 5, 1, 16, 12, 2, 14, 6, 19, 9, 7, 11, 15, 17, 3, 10, 0, 18, 3, 5, 7, 14, 10, 9, 1, 15, 4, 13, 16, 17, 6, 18, 12, 11, 19, 2, 0, 8, 18, 1, 0, 7, 9, 14, 3, 15, 2, 11, 16, 8, 12, 19, 6, 17, 4, 5, 10, 13, 16, 2, 19, 14, 0, 7, 15, 12, 6, 17, 4, 18, 11, 5, 9, 3, 8, 1, 13, 10, 5, 14, 10, 3, 7, 13, 12, 8, 9, 16, 1, 17, 2, 6, 19, 4, 11, 15, 18, 0, 16, 19, 12, 17, 5, 2, 6, 14, 11, 10, 8, 1, 3, 9, 18, 4, 13, 15, 0, 7, 13, 16, 3, 0, 11, 10, 2, 15, 7, 4, 9, 19, 14, 17, 12, 6, 5, 1, 18, 8, 18, 16, 2, 17, 15, 1, 5, 8, 3, 7, 6, 12, 0, 14, 13, 11, 10, 19, 4, 9]);